# Objective value = 1.0862142857142857e+02
split_value_node_1 2.2528248587570623e-01
node_1_applies_split 1
node_1_splits_on_feature_0 0
node_1_splits_on_feature_1 0
node_1_splits_on_feature_2 0
node_1_splits_on_feature_3 1
node_2_contains_any_point 1
x0_is_in_node_2 0
x1_is_in_node_2 0
x2_is_in_node_2 1
x3_is_in_node_2 1
x4_is_in_node_2 0
x5_is_in_node_2 0
x6_is_in_node_2 0
x7_is_in_node_2 0
x8_is_in_node_2 0
x9_is_in_node_2 0
x10_is_in_node_2 0
x11_is_in_node_2 1
x12_is_in_node_2 1
x13_is_in_node_2 1
x14_is_in_node_2 0
x15_is_in_node_2 1
x16_is_in_node_2 0
x17_is_in_node_2 1
x18_is_in_node_2 0
x19_is_in_node_2 0
x20_is_in_node_2 1
x21_is_in_node_2 0
x22_is_in_node_2 0
x23_is_in_node_2 1
x24_is_in_node_2 1
x25_is_in_node_2 1
x26_is_in_node_2 0
x27_is_in_node_2 0
x28_is_in_node_2 0
x29_is_in_node_2 0
x30_is_in_node_2 1
x31_is_in_node_2 0
x32_is_in_node_2 0
x33_is_in_node_2 1
x34_is_in_node_2 0
x35_is_in_node_2 1
x36_is_in_node_2 1
x37_is_in_node_2 1
x38_is_in_node_2 0
x39_is_in_node_2 0
x40_is_in_node_2 0
x41_is_in_node_2 1
x42_is_in_node_2 1
x43_is_in_node_2 0
x44_is_in_node_2 0
x45_is_in_node_2 0
x46_is_in_node_2 0
x47_is_in_node_2 1
x48_is_in_node_2 0
x49_is_in_node_2 0
x50_is_in_node_2 0
x51_is_in_node_2 0
x52_is_in_node_2 0
x53_is_in_node_2 0
x54_is_in_node_2 0
x55_is_in_node_2 1
x56_is_in_node_2 0
x57_is_in_node_2 0
x58_is_in_node_2 0
x59_is_in_node_2 0
x60_is_in_node_2 1
x61_is_in_node_2 1
x62_is_in_node_2 0
x63_is_in_node_2 1
x64_is_in_node_2 1
x65_is_in_node_2 0
x66_is_in_node_2 0
x67_is_in_node_2 1
x68_is_in_node_2 1
x69_is_in_node_2 0
x70_is_in_node_2 1
x71_is_in_node_2 1
x72_is_in_node_2 0
x73_is_in_node_2 0
x74_is_in_node_2 0
x75_is_in_node_2 0
x76_is_in_node_2 0
x77_is_in_node_2 1
x78_is_in_node_2 1
x79_is_in_node_2 0
x80_is_in_node_2 0
x81_is_in_node_2 1
x82_is_in_node_2 0
x83_is_in_node_2 0
x84_is_in_node_2 1
x85_is_in_node_2 1
x86_is_in_node_2 0
x87_is_in_node_2 0
x88_is_in_node_2 0
x89_is_in_node_2 0
x90_is_in_node_2 1
x91_is_in_node_2 0
x92_is_in_node_2 1
x93_is_in_node_2 0
x94_is_in_node_2 0
x95_is_in_node_2 0
x96_is_in_node_2 0
x97_is_in_node_2 0
x98_is_in_node_2 0
x99_is_in_node_2 0
x100_is_in_node_2 0
x101_is_in_node_2 0
x102_is_in_node_2 0
x103_is_in_node_2 0
x104_is_in_node_2 0
x105_is_in_node_2 1
x106_is_in_node_2 0
x107_is_in_node_2 0
x108_is_in_node_2 0
x109_is_in_node_2 0
x110_is_in_node_2 1
x111_is_in_node_2 1
x112_is_in_node_2 0
x113_is_in_node_2 1
x114_is_in_node_2 0
x115_is_in_node_2 0
x116_is_in_node_2 0
x117_is_in_node_2 1
x118_is_in_node_2 1
x119_is_in_node_2 1
total_number_of_points_in_2 42
number_of_points_of_label_0_in_node_2 42
number_of_points_of_label_1_in_node_2 0
number_of_points_of_label_2_in_node_2 0
label_0_is_assigned_to_node_2 1
label_1_is_assigned_to_node_2 0
label_2_is_assigned_to_node_2 0
missclassification_error_in_node_2 0
node_3_contains_any_point 1
x0_is_in_node_3 1
x1_is_in_node_3 1
x2_is_in_node_3 0
x3_is_in_node_3 0
x4_is_in_node_3 1
x5_is_in_node_3 1
x6_is_in_node_3 1
x7_is_in_node_3 1
x8_is_in_node_3 1
x9_is_in_node_3 1
x10_is_in_node_3 1
x11_is_in_node_3 0
x12_is_in_node_3 0
x13_is_in_node_3 0
x14_is_in_node_3 1
x15_is_in_node_3 0
x16_is_in_node_3 1
x17_is_in_node_3 0
x18_is_in_node_3 1
x19_is_in_node_3 1
x20_is_in_node_3 0
x21_is_in_node_3 1
x22_is_in_node_3 1
x23_is_in_node_3 0
x24_is_in_node_3 0
x25_is_in_node_3 0
x26_is_in_node_3 1
x27_is_in_node_3 1
x28_is_in_node_3 1
x29_is_in_node_3 1
x30_is_in_node_3 0
x31_is_in_node_3 1
x32_is_in_node_3 1
x33_is_in_node_3 0
x34_is_in_node_3 1
x35_is_in_node_3 0
x36_is_in_node_3 0
x37_is_in_node_3 0
x38_is_in_node_3 1
x39_is_in_node_3 1
x40_is_in_node_3 1
x41_is_in_node_3 0
x42_is_in_node_3 0
x43_is_in_node_3 1
x44_is_in_node_3 1
x45_is_in_node_3 1
x46_is_in_node_3 1
x47_is_in_node_3 0
x48_is_in_node_3 1
x49_is_in_node_3 1
x50_is_in_node_3 1
x51_is_in_node_3 1
x52_is_in_node_3 1
x53_is_in_node_3 1
x54_is_in_node_3 1
x55_is_in_node_3 0
x56_is_in_node_3 1
x57_is_in_node_3 1
x58_is_in_node_3 1
x59_is_in_node_3 1
x60_is_in_node_3 0
x61_is_in_node_3 0
x62_is_in_node_3 1
x63_is_in_node_3 0
x64_is_in_node_3 0
x65_is_in_node_3 1
x66_is_in_node_3 1
x67_is_in_node_3 0
x68_is_in_node_3 0
x69_is_in_node_3 1
x70_is_in_node_3 0
x71_is_in_node_3 0
x72_is_in_node_3 1
x73_is_in_node_3 1
x74_is_in_node_3 1
x75_is_in_node_3 1
x76_is_in_node_3 1
x77_is_in_node_3 0
x78_is_in_node_3 0
x79_is_in_node_3 1
x80_is_in_node_3 1
x81_is_in_node_3 0
x82_is_in_node_3 1
x83_is_in_node_3 1
x84_is_in_node_3 0
x85_is_in_node_3 0
x86_is_in_node_3 1
x87_is_in_node_3 1
x88_is_in_node_3 1
x89_is_in_node_3 1
x90_is_in_node_3 0
x91_is_in_node_3 1
x92_is_in_node_3 0
x93_is_in_node_3 1
x94_is_in_node_3 1
x95_is_in_node_3 1
x96_is_in_node_3 1
x97_is_in_node_3 1
x98_is_in_node_3 1
x99_is_in_node_3 1
x100_is_in_node_3 1
x101_is_in_node_3 1
x102_is_in_node_3 1
x103_is_in_node_3 1
x104_is_in_node_3 1
x105_is_in_node_3 0
x106_is_in_node_3 1
x107_is_in_node_3 1
x108_is_in_node_3 1
x109_is_in_node_3 1
x110_is_in_node_3 0
x111_is_in_node_3 0
x112_is_in_node_3 1
x113_is_in_node_3 0
x114_is_in_node_3 1
x115_is_in_node_3 1
x116_is_in_node_3 1
x117_is_in_node_3 0
x118_is_in_node_3 0
x119_is_in_node_3 0
total_number_of_points_in_3 78
number_of_points_of_label_0_in_node_3 0
number_of_points_of_label_1_in_node_3 40
number_of_points_of_label_2_in_node_3 38
label_0_is_assigned_to_node_3 0
label_1_is_assigned_to_node_3 1
label_2_is_assigned_to_node_3 0
missclassification_error_in_node_3 38
